
  25    0


   0  14 2 3 4 5 6 7 9 10 11 20 21 22 23 24 
   6   5 19 15 14 13 8 
   3   4 18 15 13 12 
   8   3 15 13 8 
   8   2 13 8 
   5   2 17 12 
   3   2 14 13 
   3   1 12 
   8   1 16 
   1   1 14 
   5   1 12 
   7   1 25
   6   1 25
   6   1 25
   3   1 25
   3   1 25
   1   1 25
   1   1 25
   3   1 25
  10   1 25
   6   1 25
   7   1 25
   4   1 25
   7   1 25
   0   0 
